proyfinal/src/viki/013/andrea/andrea-localstore/experimentInOfficeAgust.take6/worker_6/b95421fb-9524-4a02-9ba3-0beaaeab0dfe.als.cnf.out
Reading from standard input... Use '--help' for help.
============================[ Problem Statistics ]=============================
|                                                                             |
|  Number of variables:         87638                                         |
|  Number of clauses:          161767                                         |
|  Parse time:                   0.03 s                                       |
|                                                                             |
============================[ Search Statistics ]==============================
| Conflicts |          ORIGINAL         |          LEARNT          | Progress |
|           |    Vars  Clauses Literals |    Limit  Clauses Lit/Cl |          |
===============================================================================
|       100 |   63975   110828   276983 |    40636       99     28 | 27.001 % |
|       250 |   53730   110784   276893 |    44700      247     28 | 38.691 % |
|       475 |   53730   110784   276893 |    49170      472     40 | 38.691 % |
|       812 |   53730    80780   202923 |    54087      802     50 | 38.691 % |
|      1318 |   53588    80297   201733 |    59496     1304     59 | 38.853 % |
|      2077 |   53103    78601   197570 |    65446     1969     57 | 39.406 % |
|      3216 |   53103    78601   197570 |    71990     3108     77 | 39.406 % |
|      4924 |   52979    78033   196203 |    79189     4800     73 | 39.548 % |
|      7486 |   52672    77071   193819 |    87108     7338     71 | 39.898 % |
|     11330 |   51864    74083   186447 |    95819    10989     70 | 40.820 % |
|     17096 |   51589    73073   184049 |   105401    16153     68 | 41.134 % |
===============================================================================
restarts              : 76
conflicts             : 21144          (7377 /sec)
decisions             : 74972          (0.00 % random) (26159 /sec)
propagations          : 28891178       (10080529 /sec)
conflict literals     : 1357280        (46.24 % deleted)
Memory used           : 28.71 MB
CPU time              : 2.86604 s

UNSATISFIABLE
